
******************************************************************************
This program contains Ipopt, a library for large-scale nonlinear optimization.
 Ipopt is released as open source code under the Eclipse Public License (EPL).
         For more information visit http://projects.coin-or.org/Ipopt
******************************************************************************

This is Ipopt version 3.12.6, running with linear solver ma57.

Number of nonzeros in equality constraint Jacobian...:        0
Number of nonzeros in inequality constraint Jacobian.:        0
Number of nonzeros in Lagrangian Hessian.............:     8999

Total number of variables............................:     3000
                     variables with only lower bounds:        0
                variables with lower and upper bounds:        0
                     variables with only upper bounds:        0
Total number of equality constraints.................:        0
Total number of inequality constraints...............:        0
        inequality constraints with only lower bounds:        0
   inequality constraints with lower and upper bounds:        0
        inequality constraints with only upper bounds:        0

iter    objective    inf_pr   inf_du lg(mu)  ||d||  lg(rg) alpha_du alpha_pr  ls
   0  2.2086417e+04 0.00e+00 2.67e+01  -1.0 0.00e+00    -  0.00e+00 0.00e+00   0
   1  1.5533089e+04 0.00e+00 1.92e+01  -1.0 1.82e-01   2.0 1.00e+00 1.00e+00f  1
   2  8.9292870e+03 0.00e+00 1.11e+01  -1.0 2.77e-01   1.5 1.00e+00 1.00e+00f  1
   3  4.5638294e+03 0.00e+00 5.42e+00  -1.0 3.28e-01   1.0 1.00e+00 1.00e+00f  1
   4  2.1888898e+03 0.00e+00 2.43e+00  -1.0 3.90e-01   0.6 1.00e+00 1.00e+00f  1
   5  8.5509845e+02 0.00e+00 1.14e+00  -1.0 4.83e-01   0.1 1.00e+00 1.00e+00f  1
   6  2.1047530e+02 0.00e+00 4.77e-01  -1.0 5.21e-01  -0.4 1.00e+00 1.00e+00f  1
   7  2.6129698e+01 0.00e+00 1.50e-01  -1.7 5.93e-01  -0.9 1.00e+00 1.00e+00f  1
   8  1.0488959e+00 0.00e+00 2.49e-02  -2.5 1.83e+00    -  1.00e+00 1.00e+00f  1
   9  1.0000000e+00 0.00e+00 6.13e-05  -3.8 1.19e+00    -  1.00e+00 1.00e+00f  1
iter    objective    inf_pr   inf_du lg(mu)  ||d||  lg(rg) alpha_du alpha_pr  ls
  10  1.0000000e+00 0.00e+00 1.79e-18  -5.7 1.08e-03    -  1.00e+00 1.00e+00f  1

Number of Iterations....: 10

                                   (scaled)                 (unscaled)
Objective...............:   1.0000000000000000e+00    1.0000000000000000e+00
Dual infeasibility......:   1.7907225199746170e-18    1.7907225199746170e-18
Constraint violation....:   0.0000000000000000e+00    0.0000000000000000e+00
Complementarity.........:   0.0000000000000000e+00    0.0000000000000000e+00
Overall NLP error.......:   1.7907225199746170e-18    1.7907225199746170e-18


Number of objective function evaluations             = 11
Number of objective gradient evaluations             = 11
Number of equality constraint evaluations            = 0
Number of inequality constraint evaluations          = 0
Number of equality constraint Jacobian evaluations   = 0
Number of inequality constraint Jacobian evaluations = 0
Number of Lagrangian Hessian evaluations             = 10
Total CPU secs in IPOPT (w/o function evaluations)   =      0.040
Total CPU secs in NLP function evaluations           =      0.013

EXIT: Optimal Solution Found.

 ** SUBROUTINE CUTEST_csetup: Warning. The problem has no general constraints. 
 ** Other tools may be preferable ** 

************************ CUTEst statistics ************************


 Package used            :  IPOPT
 Problem                 :  DIXMAANE  
 # variables             =            3000
 # constraints           =               0
 # objective functions   =        0.2300000E+02
 # objective gradients   =        0.1200000E+02
 # objective Hessians    =        0.1100000E+02
 # Hessian-vector prdct  =        0.0000000E+00
 # constraints functions =        0.0000000E+00
 # constraints gradients =        0.0000000E+00
 # constraints Hessians  =        0.0000000E+00
 Exit code               =               0
 Final f                 =   0.1000000E+01
 Set up time             =            0.05 seconds
 Solve time              =            0.16 seconds


******************************************************************

System Time =       0.0390000008 s.
